9111 3271
4052 6656
3528 8935
1781 5798
2501 3171
5336 1877
9237 1659
3238 8876
2724 8423
2972 7808
5566 7068
5104 395
6090 6945
4966 6203
3899 6480
883 2527
5930 7762
2007 343
7304 6684
3817 9324
4546 100
3830 1584
5523 8231
1138 3097
4402 5849
866 2022
4783 8466
9803 2908
7795 9145
4883 8355
9070 3387
2034 2365
9805 1868
4379 4578
1289 6695
3774 6289
2914 6819
6404 4718
3940 8792
2966 4495
9901 3934
2674 8814
1841 1463
4133 5968
3880 5019
7289 7493
3163 6961
3487 8846
4835 7084
2605 855
